c description: Random 3-CNF over 22 variables and 94 clauses
c generator: CNFgen (0.9.2)
c copyright: (C) 2012-2022 Massimo Lauria <massimo.lauria@uniroma1.it>
c url: https://massimolauria.net/cnfgen
c command line: cnfgen --output CNF_4.28/22_bit_94_869.cnf randkcnf 3 22 94
c
p cnf 22 94
-7 12 -18 0
-10 -14 20 0
-6 -12 16 0
10 20 -22 0
-8 12 22 0
15 -16 -19 0
9 11 -20 0
2 16 21 0
-3 -17 20 0
5 -9 -13 0
7 10 -22 0
14 -19 -21 0
8 18 21 0
2 -6 -21 0
-13 17 -22 0
-1 11 20 0
1 2 10 0
5 -8 -15 0
-2 -3 -14 0
-9 10 -11 0
-7 9 -20 0
1 2 18 0
-12 -15 -19 0
-2 18 21 0
6 -12 16 0
8 -17 -20 0
-3 14 18 0
2 -3 -11 0
-1 -2 -5 0
-1 -2 9 0
5 9 -18 0
-5 -15 21 0
4 8 -20 0
8 9 -11 0
1 13 22 0
4 12 19 0
-7 13 -20 0
1 -8 21 0
11 16 -21 0
-4 -8 11 0
5 -9 22 0
-5 19 21 0
-6 17 19 0
-1 10 13 0
-9 13 -17 0
2 -6 18 0
-3 12 -16 0
4 8 18 0
-3 -8 14 0
-6 -7 10 0
14 18 -20 0
-5 -11 18 0
-2 -6 15 0
-11 -12 19 0
-5 -10 19 0
3 12 -22 0
3 17 20 0
-7 17 20 0
-6 16 22 0
-12 -16 -22 0
-3 4 17 0
-9 -17 19 0
3 19 -22 0
-4 -18 -20 0
8 -10 11 0
6 10 -19 0
-7 18 -19 0
-3 8 14 0
9 -12 -22 0
11 -15 18 0
7 13 22 0
12 -13 -19 0
1 4 14 0
-11 -13 17 0
6 7 -13 0
-9 -10 20 0
-2 15 -17 0
2 5 -18 0
8 -9 -14 0
-6 8 -15 0
-9 -18 -21 0
1 15 19 0
6 20 22 0
-5 10 15 0
-2 -4 -21 0
6 12 18 0
6 -10 -15 0
-7 -15 -18 0
11 17 21 0
10 -19 21 0
-13 -14 21 0
-4 -8 18 0
-7 8 21 0
-15 20 -21 0
